StudentsNr = 10;
InstructorsNr = 75;
DaysNr = 1;
SlotsPerDay = 40;
AvailabilitySlotsLenght = 10;
RoomNr = 2;
ProgrammNr = 1;
DegreeNr = 2;
RolesNr = 3;
CoursesNr = 2;
InstructorsProgramm = [{1}, {1}, {1}, {1}, {1}, {1}, {1}, {1}, {1}, {1}, {1}, {1}, {1}, {1}, {1}, {1}, {1}, {1}, {1}, {1}, {1}, {1}, {1}, {1}, {1}, {1}, {1}, {1}, {1}, {1}, {1}, {1}, {1}, {1}, {1}, {1}, {1}, {1}, {1}, {1}, {1}, {1}, {1}, {1}, {1}, {1}, {1}, {1}, {1}, {1}, {1}, {1}, {1}, {1}, {1}, {1}, {1}, {1}, {1}, {1}, {1}, {1}, {1}, {1}, {1}, {1}, {1}, {1}, {1}, {1}, {1}, {1}, {1}, {1}, {1}];
InstructorRolesPerProgramm = [|{3, 5, 9, 11, 12, 15, 17, 18, 19, 23, 26, 28, 32, 33, 39, 45, 46, 51, 52, 55, 59, 61, 67, 71, 72, 75}, {4, 7, 9, 11, 12, 16, 19, 27, 28, 32, 35, 37, 38, 41, 42, 44, 46, 47, 48, 49, 54, 55, 56, 57, 58, 59, 62, 63, 65, 66, 67, 70, 71, 72}, {1, 4, 5, 6, 8, 9, 10, 18, 19, 20, 26, 27, 28, 30, 31, 32, 33, 34, 35, 39, 42, 45, 46, 50, 51, 52, 54, 55, 56, 57, 58, 71, 74, 75}|];
InstructorsAvailability = [|1, 1, 1, 1, |1, 1, 1, 1, |1, 1, 1, 1, |1, 1, 1, 1, |0, 1, 1, 0, |0, 0, 1, 1, |1, 1, 1, 1, |1, 0, 0, 0, |1, 1, 1, 1, |0, 0, 1, 1, |0, 0, 1, 0, |1, 1, 0, 0, |0, 1, 1, 1, |1, 1, 0, 0, |0, 1, 0, 0, |1, 1, 1, 1, |0, 1, 1, 1, |0, 1, 1, 1, |1, 0, 1, 1, |1, 1, 1, 1, |0, 1, 1, 1, |1, 0, 0, 1, |0, 1, 0, 1, |0, 0, 1, 1, |1, 1, 1, 1, |0, 0, 1, 1, |1, 1, 1, 1, |1, 0, 0, 1, |1, 1, 1, 1, |0, 1, 1, 1, |0, 1, 1, 0, |1, 1, 1, 1, |1, 1, 1, 1, |1, 1, 0, 1, |0, 1, 0, 1, |0, 1, 0, 0, |0, 1, 1, 1, |0, 1, 1, 1, |1, 1, 1, 1, |1, 1, 1, 1, |0, 0, 1, 1, |1, 1, 1, 1, |1, 1, 1, 0, |1, 0, 1, 1, |0, 0, 0, 0, |1, 0, 1, 1, |1, 1, 1, 1, |0, 0, 1, 1, |1, 1, 1, 1, |1, 1, 1, 0, |0, 1, 0, 0, |1, 1, 1, 1, |1, 1, 1, 1, |0, 1, 1, 0, |1, 1, 1, 1, |0, 1, 1, 1, |1, 1, 1, 1, |0, 1, 1, 1, |1, 1, 1, 0, |1, 1, 1, 1, |0, 1, 1, 1, |1, 1, 1, 1, |0, 1, 1, 1, |1, 1, 1, 1, |1, 1, 1, 1, |0, 1, 1, 1, |1, 1, 1, 1, |1, 1, 0, 0, |1, 1, 0, 1, |1, 0, 1, 0, |0, 0, 1, 1, |0, 1, 1, 1, |1, 0, 1, 1, |1, 1, 0, 1, |1, 0, 0, 1|];
StudentsProgramm = [1, 1, 1, 1, 1, 1, 1, 1, 1, 1];
StudentsDegree = [1, 2, 2, 1, 2, 2, 1, 1, 1, 1];
StudentsSupervisorId = [24, 47, 30, 22, 56, 18, 34, 67, 15, 47];
StudentsCourseIds = [{1, 2}, {1, 2}, {1, 2}, {1, 2}, {1, 2}, {1, 2}, {1, 2}, {1, 2}, {1, 2}, {1, 2}];
StudentsAvailability = [|1, 1, 1, 1, |1, 0, 0, 0, |1, 1, 1, 1, |1, 1, 1, 1, |1, 1, 1, 1, |1, 0, 0, 0, |0, 0, 1, 1, |0, 0, 0, 0, |1, 1, 1, 1, |0, 1, 1, 1|];
TheoryticalMinCard = [0, 0, 0, 0, 0, 0, 0, 0, 0, 0];
CoursesInstructorIds = [{1, 2, 5, 6, 7, 11, 13, 14, 16, 19, 20, 22, 28, 29, 30, 32, 35, 36, 38, 39, 40, 41, 42, 44, 45, 46, 47, 49, 50, 52, 53, 55, 56, 57, 59, 60, 61, 62, 64, 65, 69, 70, 73, 74}, {2, 7, 8, 12, 13, 21, 22, 24, 25, 27, 30, 31, 32, 33, 35, 38, 41, 45, 46, 47, 48, 50, 56, 60, 66, 68, 69, 70, 73, 74, 75}];
RolesDemands = [7, 8, 15];
RolesContinuity = [2];
ExamLen = [2, 1, 1, 2, 1, 1, 2, 2, 2, 2];
LunchTsMinLen = 1;
LunchStarts = [14..25];
SupervisorAvailable = 5;
OptimalLunchLenght = [1, 1];
OptimalStartTs = [1, 0];
OptimalFinishTs = [1, 40];
MinimizeRooms = 400;
RolesSoftContinuity = [|1, 2, 3|3, 1, 0|];
SameDegreeInRoom = 20;
Mergeability = 2;
